c description: Graph pigeonhole principle formula on fast_gnp_random_graph(10,20,0.9)
c generator: CNFgen (0.9.0)
c copyright: (C) 2012-2020 Massimo Lauria <massimo.lauria@uniroma1.it>
c url: https://massimolauria.net/cnfgen
c
p cnf 182 755
1 2 3 4 5 6 7 8 9 10 11 12 13 14 15 16 17 0
18 19 20 21 22 23 24 25 26 27 28 29 30 31 32 33 34 35 36 0
37 38 39 40 41 42 43 44 45 46 47 48 49 50 51 52 53 54 55 0
56 57 58 59 60 61 62 63 64 65 66 67 68 69 70 71 72 73 0
74 75 76 77 78 79 80 81 82 83 84 85 86 87 88 89 90 0
91 92 93 94 95 96 97 98 99 100 101 102 103 104 105 106 107 108 109 110 0
111 112 113 114 115 116 117 118 119 120 121 122 123 124 125 126 127 128 0
129 130 131 132 133 134 135 136 137 138 139 140 141 142 143 144 145 0
146 147 148 149 150 151 152 153 154 155 156 157 158 159 160 161 162 163 164 0
165 166 167 168 169 170 171 172 173 174 175 176 177 178 179 180 181 182 0
-1 -18 0
-1 -37 0
-1 -56 0
-1 -74 0
-1 -91 0
-1 -111 0
-1 -129 0
-1 -146 0
-1 -165 0
-18 -37 0
-18 -56 0
-18 -74 0
-18 -91 0
-18 -111 0
-18 -129 0
-18 -146 0
-18 -165 0
-37 -56 0
-37 -74 0
-37 -91 0
-37 -111 0
-37 -129 0
-37 -146 0
-37 -165 0
-56 -74 0
-56 -91 0
-56 -111 0
-56 -129 0
-56 -146 0
-56 -165 0
-74 -91 0
-74 -111 0
-74 -129 0
-74 -146 0
-74 -165 0
-91 -111 0
-91 -129 0
-91 -146 0
-91 -165 0
-111 -129 0
-111 -146 0
-111 -165 0
-129 -146 0
-129 -165 0
-146 -165 0
-19 -38 0
-19 -57 0
-19 -75 0
-19 -92 0
-19 -112 0
-19 -147 0
-19 -166 0
-38 -57 0
-38 -75 0
-38 -92 0
-38 -112 0
-38 -147 0
-38 -166 0
-57 -75 0
-57 -92 0
-57 -112 0
-57 -147 0
-57 -166 0
-75 -92 0
-75 -112 0
-75 -147 0
-75 -166 0
-92 -112 0
-92 -147 0
-92 -166 0
-112 -147 0
-112 -166 0
-147 -166 0
-2 -20 0
-2 -39 0
-2 -58 0
-2 -76 0
-2 -93 0
-2 -130 0
-2 -148 0
-2 -167 0
-20 -39 0
-20 -58 0
-20 -76 0
-20 -93 0
-20 -130 0
-20 -148 0
-20 -167 0
-39 -58 0
-39 -76 0
-39 -93 0
-39 -130 0
-39 -148 0
-39 -167 0
-58 -76 0
-58 -93 0
-58 -130 0
-58 -148 0
-58 -167 0
-76 -93 0
-76 -130 0
-76 -148 0
-76 -167 0
-93 -130 0
-93 -148 0
-93 -167 0
-130 -148 0
-130 -167 0
-148 -167 0
-21 -40 0
-21 -59 0
-21 -77 0
-21 -94 0
-21 -113 0
-21 -131 0
-21 -149 0
-21 -168 0
-40 -59 0
-40 -77 0
-40 -94 0
-40 -113 0
-40 -131 0
-40 -149 0
-40 -168 0
-59 -77 0
-59 -94 0
-59 -113 0
-59 -131 0
-59 -149 0
-59 -168 0
-77 -94 0
-77 -113 0
-77 -131 0
-77 -149 0
-77 -168 0
-94 -113 0
-94 -131 0
-94 -149 0
-94 -168 0
-113 -131 0
-113 -149 0
-113 -168 0
-131 -149 0
-131 -168 0
-149 -168 0
-3 -22 0
-3 -41 0
-3 -60 0
-3 -78 0
-3 -95 0
-3 -114 0
-3 -132 0
-3 -150 0
-3 -169 0
-22 -41 0
-22 -60 0
-22 -78 0
-22 -95 0
-22 -114 0
-22 -132 0
-22 -150 0
-22 -169 0
-41 -60 0
-41 -78 0
-41 -95 0
-41 -114 0
-41 -132 0
-41 -150 0
-41 -169 0
-60 -78 0
-60 -95 0
-60 -114 0
-60 -132 0
-60 -150 0
-60 -169 0
-78 -95 0
-78 -114 0
-78 -132 0
-78 -150 0
-78 -169 0
-95 -114 0
-95 -132 0
-95 -150 0
-95 -169 0
-114 -132 0
-114 -150 0
-114 -169 0
-132 -150 0
-132 -169 0
-150 -169 0
-4 -23 0
-4 -42 0
-4 -61 0
-4 -79 0
-4 -96 0
-4 -115 0
-4 -133 0
-4 -151 0
-4 -170 0
-23 -42 0
-23 -61 0
-23 -79 0
-23 -96 0
-23 -115 0
-23 -133 0
-23 -151 0
-23 -170 0
-42 -61 0
-42 -79 0
-42 -96 0
-42 -115 0
-42 -133 0
-42 -151 0
-42 -170 0
-61 -79 0
-61 -96 0
-61 -115 0
-61 -133 0
-61 -151 0
-61 -170 0
-79 -96 0
-79 -115 0
-79 -133 0
-79 -151 0
-79 -170 0
-96 -115 0
-96 -133 0
-96 -151 0
-96 -170 0
-115 -133 0
-115 -151 0
-115 -170 0
-133 -151 0
-133 -170 0
-151 -170 0
-5 -24 0
-5 -43 0
-5 -62 0
-5 -80 0
-5 -97 0
-5 -116 0
-5 -134 0
-5 -171 0
-24 -43 0
-24 -62 0
-24 -80 0
-24 -97 0
-24 -116 0
-24 -134 0
-24 -171 0
-43 -62 0
-43 -80 0
-43 -97 0
-43 -116 0
-43 -134 0
-43 -171 0
-62 -80 0
-62 -97 0
-62 -116 0
-62 -134 0
-62 -171 0
-80 -97 0
-80 -116 0
-80 -134 0
-80 -171 0
-97 -116 0
-97 -134 0
-97 -171 0
-116 -134 0
-116 -171 0
-134 -171 0
-6 -44 0
-6 -81 0
-6 -98 0
-6 -117 0
-6 -135 0
-6 -152 0
-6 -172 0
-44 -81 0
-44 -98 0
-44 -117 0
-44 -135 0
-44 -152 0
-44 -172 0
-81 -98 0
-81 -117 0
-81 -135 0
-81 -152 0
-81 -172 0
-98 -117 0
-98 -135 0
-98 -152 0
-98 -172 0
-117 -135 0
-117 -152 0
-117 -172 0
-135 -152 0
-135 -172 0
-152 -172 0
-7 -25 0
-7 -45 0
-7 -63 0
-7 -82 0
-7 -99 0
-7 -136 0
-7 -153 0
-7 -173 0
-25 -45 0
-25 -63 0
-25 -82 0
-25 -99 0
-25 -136 0
-25 -153 0
-25 -173 0
-45 -63 0
-45 -82 0
-45 -99 0
-45 -136 0
-45 -153 0
-45 -173 0
-63 -82 0
-63 -99 0
-63 -136 0
-63 -153 0
-63 -173 0
-82 -99 0
-82 -136 0
-82 -153 0
-82 -173 0
-99 -136 0
-99 -153 0
-99 -173 0
-136 -153 0
-136 -173 0
-153 -173 0
-8 -26 0
-8 -46 0
-8 -64 0
-8 -83 0
-8 -100 0
-8 -118 0
-8 -137 0
-8 -154 0
-8 -174 0
-26 -46 0
-26 -64 0
-26 -83 0
-26 -100 0
-26 -118 0
-26 -137 0
-26 -154 0
-26 -174 0
-46 -64 0
-46 -83 0
-46 -100 0
-46 -118 0
-46 -137 0
-46 -154 0
-46 -174 0
-64 -83 0
-64 -100 0
-64 -118 0
-64 -137 0
-64 -154 0
-64 -174 0
-83 -100 0
-83 -118 0
-83 -137 0
-83 -154 0
-83 -174 0
-100 -118 0
-100 -137 0
-100 -154 0
-100 -174 0
-118 -137 0
-118 -154 0
-118 -174 0
-137 -154 0
-137 -174 0
-154 -174 0
-9 -27 0
-9 -47 0
-9 -65 0
-9 -101 0
-9 -119 0
-9 -138 0
-9 -155 0
-27 -47 0
-27 -65 0
-27 -101 0
-27 -119 0
-27 -138 0
-27 -155 0
-47 -65 0
-47 -101 0
-47 -119 0
-47 -138 0
-47 -155 0
-65 -101 0
-65 -119 0
-65 -138 0
-65 -155 0
-101 -119 0
-101 -138 0
-101 -155 0
-119 -138 0
-119 -155 0
-138 -155 0
-10 -28 0
-10 -48 0
-10 -84 0
-10 -102 0
-10 -120 0
-10 -139 0
-10 -156 0
-10 -175 0
-28 -48 0
-28 -84 0
-28 -102 0
-28 -120 0
-28 -139 0
-28 -156 0
-28 -175 0
-48 -84 0
-48 -102 0
-48 -120 0
-48 -139 0
-48 -156 0
-48 -175 0
-84 -102 0
-84 -120 0
-84 -139 0
-84 -156 0
-84 -175 0
-102 -120 0
-102 -139 0
-102 -156 0
-102 -175 0
-120 -139 0
-120 -156 0
-120 -175 0
-139 -156 0
-139 -175 0
-156 -175 0
-11 -29 0
-11 -49 0
-11 -66 0
-11 -85 0
-11 -103 0
-11 -121 0
-11 -140 0
-11 -157 0
-11 -176 0
-29 -49 0
-29 -66 0
-29 -85 0
-29 -103 0
-29 -121 0
-29 -140 0
-29 -157 0
-29 -176 0
-49 -66 0
-49 -85 0
-49 -103 0
-49 -121 0
-49 -140 0
-49 -157 0
-49 -176 0
-66 -85 0
-66 -103 0
-66 -121 0
-66 -140 0
-66 -157 0
-66 -176 0
-85 -103 0
-85 -121 0
-85 -140 0
-85 -157 0
-85 -176 0
-103 -121 0
-103 -140 0
-103 -157 0
-103 -176 0
-121 -140 0
-121 -157 0
-121 -176 0
-140 -157 0
-140 -176 0
-157 -176 0
-12 -30 0
-12 -50 0
-12 -67 0
-12 -86 0
-12 -104 0
-12 -122 0
-12 -141 0
-12 -158 0
-12 -177 0
-30 -50 0
-30 -67 0
-30 -86 0
-30 -104 0
-30 -122 0
-30 -141 0
-30 -158 0
-30 -177 0
-50 -67 0
-50 -86 0
-50 -104 0
-50 -122 0
-50 -141 0
-50 -158 0
-50 -177 0
-67 -86 0
-67 -104 0
-67 -122 0
-67 -141 0
-67 -158 0
-67 -177 0
-86 -104 0
-86 -122 0
-86 -141 0
-86 -158 0
-86 -177 0
-104 -122 0
-104 -141 0
-104 -158 0
-104 -177 0
-122 -141 0
-122 -158 0
-122 -177 0
-141 -158 0
-141 -177 0
-158 -177 0
-13 -31 0
-13 -51 0
-13 -68 0
-13 -87 0
-13 -105 0
-13 -123 0
-13 -159 0
-31 -51 0
-31 -68 0
-31 -87 0
-31 -105 0
-31 -123 0
-31 -159 0
-51 -68 0
-51 -87 0
-51 -105 0
-51 -123 0
-51 -159 0
-68 -87 0
-68 -105 0
-68 -123 0
-68 -159 0
-87 -105 0
-87 -123 0
-87 -159 0
-105 -123 0
-105 -159 0
-123 -159 0
-32 -69 0
-32 -106 0
-32 -124 0
-32 -142 0
-32 -160 0
-32 -178 0
-69 -106 0
-69 -124 0
-69 -142 0
-69 -160 0
-69 -178 0
-106 -124 0
-106 -142 0
-106 -160 0
-106 -178 0
-124 -142 0
-124 -160 0
-124 -178 0
-142 -160 0
-142 -178 0
-160 -178 0
-14 -33 0
-14 -52 0
-14 -70 0
-14 -88 0
-14 -107 0
-14 -125 0
-14 -161 0
-14 -179 0
-33 -52 0
-33 -70 0
-33 -88 0
-33 -107 0
-33 -125 0
-33 -161 0
-33 -179 0
-52 -70 0
-52 -88 0
-52 -107 0
-52 -125 0
-52 -161 0
-52 -179 0
-70 -88 0
-70 -107 0
-70 -125 0
-70 -161 0
-70 -179 0
-88 -107 0
-88 -125 0
-88 -161 0
-88 -179 0
-107 -125 0
-107 -161 0
-107 -179 0
-125 -161 0
-125 -179 0
-161 -179 0
-15 -34 0
-15 -53 0
-15 -71 0
-15 -108 0
-15 -126 0
-15 -143 0
-15 -162 0
-15 -180 0
-34 -53 0
-34 -71 0
-34 -108 0
-34 -126 0
-34 -143 0
-34 -162 0
-34 -180 0
-53 -71 0
-53 -108 0
-53 -126 0
-53 -143 0
-53 -162 0
-53 -180 0
-71 -108 0
-71 -126 0
-71 -143 0
-71 -162 0
-71 -180 0
-108 -126 0
-108 -143 0
-108 -162 0
-108 -180 0
-126 -143 0
-126 -162 0
-126 -180 0
-143 -162 0
-143 -180 0
-162 -180 0
-16 -35 0
-16 -54 0
-16 -72 0
-16 -89 0
-16 -109 0
-16 -127 0
-16 -144 0
-16 -163 0
-16 -181 0
-35 -54 0
-35 -72 0
-35 -89 0
-35 -109 0
-35 -127 0
-35 -144 0
-35 -163 0
-35 -181 0
-54 -72 0
-54 -89 0
-54 -109 0
-54 -127 0
-54 -144 0
-54 -163 0
-54 -181 0
-72 -89 0
-72 -109 0
-72 -127 0
-72 -144 0
-72 -163 0
-72 -181 0
-89 -109 0
-89 -127 0
-89 -144 0
-89 -163 0
-89 -181 0
-109 -127 0
-109 -144 0
-109 -163 0
-109 -181 0
-127 -144 0
-127 -163 0
-127 -181 0
-144 -163 0
-144 -181 0
-163 -181 0
-17 -36 0
-17 -55 0
-17 -73 0
-17 -90 0
-17 -110 0
-17 -128 0
-17 -145 0
-17 -164 0
-17 -182 0
-36 -55 0
-36 -73 0
-36 -90 0
-36 -110 0
-36 -128 0
-36 -145 0
-36 -164 0
-36 -182 0
-55 -73 0
-55 -90 0
-55 -110 0
-55 -128 0
-55 -145 0
-55 -164 0
-55 -182 0
-73 -90 0
-73 -110 0
-73 -128 0
-73 -145 0
-73 -164 0
-73 -182 0
-90 -110 0
-90 -128 0
-90 -145 0
-90 -164 0
-90 -182 0
-110 -128 0
-110 -145 0
-110 -164 0
-110 -182 0
-128 -145 0
-128 -164 0
-128 -182 0
-145 -164 0
-145 -182 0
-164 -182 0